data/evidence/ss_sat/proofs/scaled_cadical_drat/php_5_4.cadical.drat
21 -17 0
21 -1 0
-21 17 1 0
-5 -21 0
-9 -21 0
-13 -21 0
d -21 17 1 0
d -5 -17 0
d -9 -17 0
d -13 -17 0
d -1 -5 0
d -1 -9 0
d -1 -13 0
22 -18 0
22 -2 0
-22 18 2 0
-6 -22 0
-10 -22 0
-14 -22 0
d -22 18 2 0
d -6 -18 0
d -10 -18 0
d -14 -18 0
d -2 -6 0
d -2 -10 0
d -2 -14 0
23 -19 0
23 -3 0
-23 19 3 0
-7 -23 0
-11 -23 0
-15 -23 0
d -23 19 3 0
d -7 -19 0
d -11 -19 0
d -15 -19 0
d -3 -7 0
d -3 -11 0
d -3 -15 0
24 -20 0
24 -4 0
-24 20 4 0
-8 -24 0
-12 -24 0
-16 -24 0
d -24 20 4 0
d -8 -20 0
d -12 -20 0
d -16 -20 0
d -4 -8 0
d -4 -12 0
d -4 -16 0
-17 2 3 4 0
21 2 3 4 0
d 2 1 3 4 0
d -1 -17 0
d 21 -1 0
21 19 20 18 0
19 20 18 2 3 4 0
d 19 20 18 17 0
d 21 -17 0
d -17 2 3 4 0
-9 7 6 8 0
-13 7 6 8 0
-21 7 6 8 0
d 5 7 6 8 0
d -5 -9 0
d -5 -13 0
d -5 -21 0
-13 11 12 10 0
-21 11 12 10 0
11 12 10 7 6 8 0
d 11 12 10 9 0
d -9 -13 0
d -9 -21 0
d -9 7 6 8 0
-21 15 16 14 0
15 16 14 7 6 8 0
15 16 14 11 12 10 0
d 15 16 14 13 0
d -13 -21 0
d -13 7 6 8 0
d -13 11 12 10 0
-18 21 3 4 0
22 21 3 4 0
22 19 20 18 3 4 0
d 21 2 3 4 0
d 19 20 18 2 3 4 0
d -2 -18 0
d 22 -2 0
22 21 19 20 0
21 19 20 3 4 0
22 19 20 3 4 0
d 22 19 20 18 3 4 0
d 21 19 20 18 0
d 22 -18 0
d -18 21 3 4 0
-19 22 21 4 0
23 22 21 4 0
23 21 19 20 4 0
23 22 19 20 4 0
d -3 -19 0
d 23 -3 0
d 22 21 3 4 0
d 21 19 20 3 4 0
d 22 19 20 3 4 0
23 21 20 4 0
d 23 21 19 20 4 0
23 22 20 4 0
d 23 22 19 20 4 0
23 22 21 20 0
22 21 4 20 0
d 23 -19 0
d -19 22 21 4 0
d 22 21 19 20 0
-20 23 22 21 0
24 23 22 21 0
24 23 21 20 0
24 23 22 20 0
24 22 21 20 0
d -4 -20 0
d 24 -4 0
d 23 22 21 4 0
d 23 21 20 4 0
d 23 22 20 4 0
d 22 21 4 20 0
24 23 21 0
d 24 23 21 20 0
24 23 22 0
d 24 23 22 20 0
24 22 21 0
d 24 22 21 20 0
23 22 21 0
d -20 23 22 21 0
d 23 22 21 20 0
d 24 -20 0
d 24 23 22 21 0
-15 -16 0
6 7 -16 0
-6 -16 0
-16 0
-21 -7 0
-7 0
-24 -22 0
-22 21 0
10 21 0
22 21 0
d 22 24 21 0
21 0
-10 0
-15 0
14 0
-6 0
-22 0
8 0
-12 0
-24 0
11 0
23 0
0
