data/evidence/ss_sat/proofs/scaled_cadical_lrat/php_5_4.cadical.lrat
46 21 -17 0 0
47 21 -1 0 0
48 -21 17 1 0 -46 -47 0
49 -5 -21 0 12 6 48 0
50 -9 -21 0 14 7 48 0
51 -13 -21 0 15 8 48 0
51 d 48 12 14 15 6 7 8 0
52 22 -18 0 0
53 22 -2 0 0
54 -22 18 2 0 -52 -53 0
55 -6 -22 0 22 16 54 0
56 -10 -22 0 24 17 54 0
57 -14 -22 0 25 18 54 0
57 d 54 22 24 25 16 17 18 0
58 23 -19 0 0
59 23 -3 0 0
60 -23 19 3 0 -58 -59 0
61 -7 -23 0 32 26 60 0
62 -11 -23 0 34 27 60 0
63 -15 -23 0 35 28 60 0
63 d 60 32 34 35 26 27 28 0
64 24 -20 0 0
65 24 -4 0 0
66 -24 20 4 0 -64 -65 0
67 -8 -24 0 42 36 66 0
68 -12 -24 0 44 37 66 0
69 -16 -24 0 45 38 66 0
69 d 66 42 44 45 36 37 38 0
70 -17 2 3 4 0 1 9 0
71 21 2 3 4 0 1 47 0
71 d 1 9 47 0
72 21 19 20 18 0 5 46 0
73 19 20 18 2 3 4 0 70 5 0
73 d 5 46 70 0
74 -9 7 6 8 0 2 10 0
75 -13 7 6 8 0 2 11 0
76 -21 7 6 8 0 2 49 0
76 d 2 10 11 49 0
77 -13 11 12 10 0 3 13 0
78 -21 11 12 10 0 3 50 0
79 11 12 10 7 6 8 0 74 3 0
79 d 3 13 50 74 0
80 -21 15 16 14 0 4 51 0
81 15 16 14 7 6 8 0 75 4 0
82 15 16 14 11 12 10 0 77 4 0
82 d 4 51 75 77 0
83 -18 21 3 4 0 71 19 0
84 22 21 3 4 0 71 53 0
85 22 19 20 18 3 4 0 73 53 0
85 d 71 73 19 53 0
86 22 21 19 20 0 72 52 0
87 21 19 20 3 4 0 83 72 0
88 22 19 20 3 4 0 85 52 0
88 d 85 72 52 83 0
89 -19 22 21 4 0 84 29 0
90 23 22 21 4 0 84 59 0
91 23 21 19 20 4 0 87 59 0
92 23 22 19 20 4 0 88 59 0
92 d 29 59 84 87 88 0
93 23 21 20 4 0 91 58 0
93 d 91 0
94 23 22 20 4 0 92 58 0
94 d 92 0
95 23 22 21 20 0 86 58 0
96 22 21 4 20 0 86 89 0
96 d 58 89 86 0
97 -20 23 22 21 0 90 39 0
98 24 23 22 21 0 90 65 0
99 24 23 21 20 0 93 65 0
100 24 23 22 20 0 94 65 0
101 24 22 21 20 0 96 65 0
101 d 39 65 90 93 94 96 0
102 24 23 21 0 99 64 0
102 d 99 0
103 24 23 22 0 100 64 0
103 d 100 0
104 24 22 21 0 101 64 0
104 d 101 0
105 23 22 21 0 95 97 0
105 d 97 95 64 98 0
106 -15 -16 0 69 41 31 63 103 102 55 76 0
107 6 7 -16 0 69 43 41 76 104 102 56 62 79 0
108 -6 -16 0 69 43 20 55 103 104 62 78 0
109 -16 0 43 69 108 107 30 61 103 102 56 78 0
110 -21 -7 0 109 61 31 30 80 23 57 78 103 68 0
111 -7 0 109 30 31 61 110 102 105 68 56 57 82 0
112 -24 -22 0 109 111 57 56 55 67 68 81 79 33 0
113 -22 21 0 111 109 55 56 57 112 102 62 63 82 81 40 0
114 10 21 0 111 109 113 105 63 62 104 68 67 79 82 21 0
115 22 21 0 109 111 104 105 67 63 114 20 23 81 0
115 d 104 0
116 21 0 113 115 0
117 -10 0 111 109 116 20 23 56 76 80 67 63 103 0
118 -15 0 117 116 111 33 63 78 40 68 76 103 55 0
119 14 0 118 116 109 80 0
120 -6 0 119 21 0
121 -22 0 119 57 0
122 8 0 120 111 116 76 0
123 -12 0 122 40 0
124 -24 0 122 67 0
125 11 0 123 117 116 78 0
126 23 0 124 121 103 0
127 0 125 126 62 0
